;; sequence(s): A70884
;; terms: 7 11 13 17 19 23 29 31 37 41 43 47 49 53 59 61 67 71 73 77
;; small program: (compr(loop(loop(x * x, 2, y) + x, x, 1) mod (2 + x), x) + 1) + 1
;; fast program: (loop((loop((loop(((compr(((loop((x * x) mod ((2 * (2 * (2 + 2))) - 1), 2 + x, x) - 1) mod (1 + x)) - 1, 1 + x) * 2) - 1) - 2, 1, 2 + x) - 2) - 2, 1, 2 + x) - 2) - 2, 1, 2 + x) - 2) - 2
(set-logic UFNIA)
(define-fun modf ((a Int) (b Int)) Int (ite (< 0 b) (mod a b) (- (mod (- a) (- b)))))
(declare-fun f2 (Int) Int)
(declare-fun g2 () Int)
(declare-fun h2 (Int Int) Int)
(declare-fun u2 (Int Int) Int)
(declare-fun v2 (Int Int) Int)
(declare-fun f1 (Int Int) Int)
(declare-fun g1 (Int) Int)
(declare-fun h1 () Int)
(declare-fun u1 (Int Int) Int)
(declare-fun v1 (Int) Int)
(declare-fun f0 (Int) Int)
(declare-fun g0 (Int) Int)
(declare-fun t0 (Int) Int)
(declare-fun u0 (Int) Int)
(declare-fun v0 (Int) Int)
(declare-fun small (Int) Int)
(declare-fun f7 (Int) Int)
(declare-fun g7 (Int) Int)
(declare-fun h7 (Int) Int)
(declare-fun u7 (Int Int) Int)
(declare-fun v7 (Int) Int)
(declare-fun f6 (Int) Int)
(declare-fun g6 (Int) Int)
(declare-fun t6 (Int) Int)
(declare-fun u6 (Int) Int)
(declare-fun v6 (Int) Int)
(declare-fun f5 (Int) Int)
(declare-fun g5 () Int)
(declare-fun h5 (Int) Int)
(declare-fun u5 (Int Int) Int)
(declare-fun v5 (Int) Int)
(declare-fun f4 (Int) Int)
(declare-fun g4 () Int)
(declare-fun h4 (Int) Int)
(declare-fun u4 (Int Int) Int)
(declare-fun v4 (Int) Int)
(declare-fun f3 (Int) Int)
(declare-fun g3 () Int)
(declare-fun h3 (Int) Int)
(declare-fun u3 (Int Int) Int)
(declare-fun v3 (Int) Int)
(declare-fun fast (Int) Int)
(assert (forall ((x Int)) (= (f2 x) (* x x))))
(assert (= g2 2))
(assert (forall ((x Int) (y Int)) (= (h2 x y) y)))
(assert (forall ((x Int) (y Int)) (= (u2 x y) (ite (<= x 0) y (f2 (u2 (- x 1) y))))))
(assert (forall ((x Int) (y Int)) (= (v2 x y) (u2 g2 (h2 x y)))))
(assert (forall ((x Int) (y Int)) (= (f1 x y) (+ (v2 x y) x))))
(assert (forall ((x Int)) (= (g1 x) x)))
(assert (= h1 1))
(assert (forall ((x Int) (y Int)) (= (u1 x y) (ite (<= x 0) y (f1 (u1 (- x 1) y) x)))))
(assert (forall ((x Int)) (= (v1 x) (u1 (g1 x) h1))))
(assert (forall ((x Int)) (= (f0 x) (modf (v1 x) (+ 2 x)))))
(assert (forall ((x Int)) (= (g0 x) x)))
(assert (forall ((x Int)) (= (t0 x) (ite (<= (f0 x) 0) x (t0 (+ x 1))))))
(assert (forall ((x Int)) (= (u0 x) (ite (<= x 0) (t0 0) (t0 (+ (u0 (- x 1)) 1))))))
(assert (forall ((x Int)) (= (v0 x) (u0 (g0 x)))))
(assert (forall ((x Int)) (= (small x) (+ (+ (v0 x) 1) 1))))
(assert (forall ((x Int)) (= (f7 x) (modf (* x x) (- (* 2 (* 2 (+ 2 2))) 1)))))
(assert (forall ((x Int)) (= (g7 x) (+ 2 x))))
(assert (forall ((x Int)) (= (h7 x) x)))
(assert (forall ((x Int) (y Int)) (= (u7 x y) (ite (<= x 0) y (f7 (u7 (- x 1) y))))))
(assert (forall ((x Int)) (= (v7 x) (u7 (g7 x) (h7 x)))))
(assert (forall ((x Int)) (= (f6 x) (- (modf (- (v7 x) 1) (+ 1 x)) 1))))
(assert (forall ((x Int)) (= (g6 x) (+ 1 x))))
(assert (forall ((x Int)) (= (t6 x) (ite (<= (f6 x) 0) x (t6 (+ x 1))))))
(assert (forall ((x Int)) (= (u6 x) (ite (<= x 0) (t6 0) (t6 (+ (u6 (- x 1)) 1))))))
(assert (forall ((x Int)) (= (v6 x) (u6 (g6 x)))))
(assert (forall ((x Int)) (= (f5 x) (- (- (* (v6 x) 2) 1) 2))))
(assert (= g5 1))
(assert (forall ((x Int)) (= (h5 x) (+ 2 x))))
(assert (forall ((x Int) (y Int)) (= (u5 x y) (ite (<= x 0) y (f5 (u5 (- x 1) y))))))
(assert (forall ((x Int)) (= (v5 x) (u5 g5 (h5 x)))))
(assert (forall ((x Int)) (= (f4 x) (- (- (v5 x) 2) 2))))
(assert (= g4 1))
(assert (forall ((x Int)) (= (h4 x) (+ 2 x))))
(assert (forall ((x Int) (y Int)) (= (u4 x y) (ite (<= x 0) y (f4 (u4 (- x 1) y))))))
(assert (forall ((x Int)) (= (v4 x) (u4 g4 (h4 x)))))
(assert (forall ((x Int)) (= (f3 x) (- (- (v4 x) 2) 2))))
(assert (= g3 1))
(assert (forall ((x Int)) (= (h3 x) (+ 2 x))))
(assert (forall ((x Int) (y Int)) (= (u3 x y) (ite (<= x 0) y (f3 (u3 (- x 1) y))))))
(assert (forall ((x Int)) (= (v3 x) (u3 g3 (h3 x)))))
(assert (forall ((x Int)) (= (fast x) (- (- (v3 x) 2) 2))))
(assert (exists ((c Int)) (and (>= c 0) (not (= (small c) (fast c))))))
(check-sat)
